n_res = 5;
n_events = 12;
n_prec = 19;
source = 1;
sink = 12;
min_lvl = [0, -2, 0, -11, -2];
max_lvl = [4, 2, 5, -2, 0];
rr = [| 0, -1, 0, 2, 2, -2, 2, 0, 1, 0, 0, 0
      | 0, -1, -1, 1, -1, 0, -1, 1, 1, 2, 1, 0
      | 0, -1, 1, 2, -1, 0, 0, 0, 2, 0, 2, 0
      | 0, 0, 0, 0, -1, -2, -1, -2, -1, -2, -2, 0
      | 0, 0, 0, 0, 0, 0, -1, -2, 0, 0, 1, 0 |];
prec = [| 1, 0, 2
        | 1, 0, 3
        | 1, 0, 5
        | 1, 0, 4
        | 2, 0, 9
        | 3, 3, 6
        | 4, 1, 8
        | 5, 15, 7
        | 6, 21, 8
        | 6, 0, 9
        | 6, 12, 10
        | 7, 0, 11
        | 8, 10, 12
        | 8, -1, 4
        | 9, 9, 12
        | 10, -12, 6
        | 10, 4, 12
        | 11, 9, 12
        | 11, -24, 5 |];
